InboundTrucks  = 40;
OutboundTrucks = 20;
ReleaseTime    = [4,15,32,8,21,40,23,33,8,80,107,36,24,75,36,39,10,22,82,38,28,11,21,10,119,40,30,27,15,96,40,35,38,116,34,38,13,26,61,37];
UnloadTime     = [8,9,12,4,6,6,7,5,7,7,6,6,4,6,2,4,3,3,6,1,10,4,1,11,11,12,11,3,3,3,9,12,10,11,10,12,3,7,7,5];
LoadTime       = [12,2,8,3,7,10,2,4,8,7,7,8,4,2,11,5,9,8,11,3];
TransferTime   = [| 0,0,1,2,0,1,2,2,0,1,0,0,0,2,0,0,2,0,2,0 | 0,0,0,1,0,1,1,0,0,0,1,1,0,1,1,2,0,0,0,2 | 0,1,0,0,1,0,0,1,0,2,0,0,2,0,1,0,2,1,2,0 | 0,2,1,1,0,0,0,0,0,1,0,2,0,2,1,2,1,1,0,1 | 0,0,0,0,1,2,2,1,0,0,2,0,0,1,1,0,0,2,0,0 | 1,0,0,0,0,0,0,0,1,0,0,2,0,0,0,2,1,0,0,0 | 0,0,1,1,1,2,0,2,1,0,2,2,0,0,0,0,0,0,0,0 | 0,0,0,0,0,0,0,2,0,2,0,0,2,0,1,0,1,0,0,0 | 0,0,0,0,0,4,0,0,0,3,0,2,0,0,5,0,3,0,0,4 | 0,0,0,2,2,3,0,0,0,0,0,5,0,0,1,3,0,0,1,0 | 0,0,5,0,1,0,0,1,0,0,5,0,0,0,1,0,1,0,4,0 | 1,0,0,0,2,0,0,0,0,0,0,0,0,0,2,0,1,0,0,1 | 5,0,0,0,0,0,0,0,5,0,0,0,0,4,5,5,0,0,0,0 | 0,0,3,2,0,0,3,1,0,0,5,0,3,0,0,0,3,0,1,0 | 0,4,0,0,0,0,0,5,0,0,0,0,5,0,5,0,0,0,0,1 | 0,0,0,0,2,0,0,0,0,3,0,0,1,0,0,0,0,3,0,0 | 4,0,0,2,0,0,0,0,0,0,0,0,0,0,2,3,2,0,0,0 | 4,0,0,3,0,0,0,0,0,1,1,5,0,4,2,0,1,1,0,0 | 5,0,0,0,0,2,0,0,0,0,0,0,0,0,4,0,5,0,0,2 | 3,2,0,0,0,2,0,0,4,0,0,0,0,0,0,0,0,0,0,2 | 0,1,0,3,0,0,0,5,5,0,0,0,0,4,0,0,5,0,0,0 | 0,0,0,1,0,0,0,0,0,0,1,5,4,0,0,0,0,0,2,0 | 4,0,0,0,3,0,0,0,2,0,2,2,0,0,4,0,2,0,0,0 | 0,4,0,0,0,0,4,0,0,5,0,4,1,0,2,0,0,5,4,0 | 0,0,0,0,0,0,4,0,0,0,0,0,0,2,0,0,0,3,0,0 | 0,0,1,0,0,3,0,0,4,0,4,0,5,0,2,0,0,4,0,0 | 0,0,4,0,4,0,1,0,0,0,0,0,0,0,0,2,0,2,0,1 | 0,0,0,0,0,0,4,3,0,0,0,3,0,0,3,1,0,0,4,0 | 0,1,0,0,0,0,0,0,0,2,3,0,0,2,0,0,0,0,0,4 | 0,0,0,0,3,0,0,1,0,0,3,0,0,0,0,2,5,4,0,4 | 0,0,4,1,0,0,0,5,0,1,2,4,5,5,3,0,0,0,0,0 | 0,4,0,3,5,2,0,0,0,0,0,0,5,0,2,5,1,0,0,0 | 0,0,1,0,0,2,5,5,0,0,0,0,0,4,0,0,0,0,0,2 | 0,0,0,0,0,3,0,0,0,0,0,0,0,0,0,0,0,0,0,0 | 0,0,0,0,3,0,0,0,2,4,0,3,0,5,4,0,0,0,1,0 | 0,2,3,0,0,0,2,2,0,0,0,0,1,0,1,1,0,0,3,0 | 0,0,1,0,0,2,1,0,1,4,4,0,3,5,4,5,0,0,0,0 | 2,0,0,0,0,0,0,0,0,0,0,0,0,0,0,0,5,0,0,0 | 0,0,0,5,0,0,0,0,0,0,0,0,0,0,0,0,0,0,0,0 | 0,4,0,0,2,0,0,5,0,0,2,2,3,0,0,0,0,4,2,2 |];
